13253
1 1 1 0 0 1 1 0 1 0 0 0 0 0 0 0 0 1 0 0 1 0 0 0 1 1 0 0 0 0 
20 25 20 2 20 5 2 24 1 17 24 8 8 20 17 8 17 17 5 0 2 0 5 17 5 8 2 24 5 24 5 25 6 25 20 20 24 24 0 2 0 8 24 8 24 17 0 20 25 8 5 2 17 5 20 20 17 25 0 17 0 5 20 0 0 25 24 0 5 24 20 6 5 17 24 8 24 20 1 24 20 0 20 17 17 17 17 0 20 5 2 24 17 0 17 5 2 2 25 20 8 17 17 25 2 25 17 0 8 8 17 1 2 0 25 25 24 24 24 24 5 8 25 20 8 0 5 24 0 25 0 0 24 5 8 8 17 5 20 17 0 8 20 17 8 25 25 5 2 5 

Total Run Time: 250279 ms.
